p cnf 41 124
a 33 1 0
e 2 3 4 5 6 7 8 9 10 11 12 13 14 15 16 17 18 19 20 21 22 23 24 25 26 27 28 29 30 31 32 34 35 36 37 38 39 40 41 0
1 -2 -3 0
-1 2 -3 0
1 2 3 0
-1 -2 3 0
5 -4 0
5 -2 0
4 2 -5 0
6 5 0
6 -2 0
-5 2 -6 0
7 3 0
7 6 0
-3 -6 -7 0
-2 8 -9 0
2 -8 -9 0
-2 -8 9 0
2 8 9 0
1 -9 -10 0
-1 9 -10 0
1 9 10 0
-1 -9 10 0
-11 1 0
-11 -10 0
-1 10 11 0
12 4 0
12 11 0
-4 -11 -12 0
-4 2 -13 0
4 -2 -13 0
-4 -2 13 0
4 2 13 0
15 14 0
15 14 0
-14 -15 0
16 -14 0
16 -15 0
14 15 -16 0
-17 -16 0
-17 11 0
16 -11 17 0
-13 -17 -18 0
13 17 -18 0
-13 17 18 0
13 -17 18 0
19 18 0
19 -15 0
-18 15 -19 0
20 1 0
20 -19 0
-1 19 -20 0
-21 -13 0
-21 20 0
13 -20 21 0
-22 -12 0
-22 21 0
12 -21 22 0
23 -7 0
23 22 0
7 -22 -23 0
24 4 0
24 16 0
-4 -16 -24 0
-25 -8 -26 0
25 8 -26 0
-25 8 26 0
25 -8 26 0
26 20 -27 0
-26 -20 -27 0
26 -20 27 0
-26 20 27 0
24 27 -28 0
-24 -27 -28 0
24 -27 28 0
-24 27 28 0
11 8 -29 0
-11 -8 -29 0
11 -8 29 0
-11 8 29 0
30 -28 0
30 29 0
28 -29 -30 0
-31 -23 0
-31 30 0
23 -30 31 0
-33 -10 0
-33 -32 0
10 32 33 0
25 4 -34 0
-25 -4 -34 0
25 -4 34 0
-25 4 34 0
35 33 0
35 -34 0
-33 34 -35 0
36 14 0
36 17 0
-14 -17 -36 0
37 10 -38 0
-37 -10 -38 0
37 -10 38 0
-37 10 38 0
36 -38 -39 0
-36 38 -39 0
36 38 39 0
-36 -38 39 0
-35 -39 -40 0
35 39 -40 0
-35 39 40 0
35 -39 40 0
41 31 0
41 40 0
-31 -40 -41 0
-14 13 2 -21 31 41 -25 0
12 -14 33 20 -17 -38 -26 0
-14 36 -9 19 11 -30 0
-26 29 22 -25 0
-19 27 10 -18 -14 -24 21 -12 0
-25 -5 2 -13 -34 8 -6 0
13 21 2 37 -24 17 -16 0
-38 -41 40 -39 -22 0
3 -4 13 10 11 39 -28 0
14 -25 -33 -39 -19 24 0
-9 -19 29 0
41 0
